
n_res = 6;
rcap = [51, 48, 50, 48, 627, 781];
rtype = [1, 1, 1, 1, 2, 2];
n_tasks = 50;
modes =  [{1, 2, 3}, {4, 5, 6}, {7, 8, 9}, {10, 11, 12}, {13, 14, 15}, {16, 17, 18}, {19, 20, 21}, {22, 23, 24}, {25, 26, 27}, {28, 29, 30}, {31, 32, 33}, {34, 35, 36}, {37, 38, 39}, {40, 41, 42}, {43, 44, 45}, {46, 47, 48}, {49, 50, 51}, {52, 53, 54}, {55, 56, 57}, {58, 59, 60}, {61, 62, 63}, {64, 65, 66}, {67, 68, 69}, {70, 71, 72}, {73, 74, 75}, {76, 77, 78}, {79, 80, 81}, {82, 83, 84}, {85, 86, 87}, {88, 89, 90}, {91, 92, 93}, {94, 95, 96}, {97, 98, 99}, {100, 101, 102}, {103, 104, 105}, {106, 107, 108}, {109, 110, 111}, {112, 113, 114}, {115, 116, 117}, {118, 119, 120}, {121, 122, 123}, {124, 125, 126}, {127, 128, 129}, {130, 131, 132}, {133, 134, 135}, {136, 137, 138}, {139, 140, 141}, {142, 143, 144}, {145, 146, 147}, {148, 149, 150}];
succ =  [{49, 46, 31, 30, 25, 16, 13, 12}, {46, 43, 33, 30, 23, 16, 13}, {50, 49, 48, 47, 46, 44, 41, 40, 37, 35, 29, 25}, {50, 48, 45, 44, 43, 41, 37, 36, 35, 29, 21}, {50, 48, 45, 43, 37, 30, 26, 16}, {49, 46, 44, 42, 36, 35, 32, 26, 25}, {50, 45, 43, 37, 21, 16}, {47, 46, 45, 36, 35, 30, 29, 28}, {50, 49, 48, 47, 43, 41, 35, 21}, {48, 46, 45, 30, 29, 28, 27}, {46, 45, 44, 43, 41, 36, 35, 29, 28}, {47, 45, 44, 43, 41, 39, 35, 29, 28}, {45, 44, 41, 37, 36, 35, 29, 28}, {47, 44, 43, 35, 21}, {47, 46, 45, 44, 42, 41, 39, 28}, {47, 42, 41, 39, 35, 28}, {43, 41, 40, 39, 35, 29}, {49, 44, 41, 38, 25}, {47, 45, 44, 40, 38, 36}, {43, 42, 41, 40, 38, 36}, {46, 42, 39, 28}, {49, 44, 42, 38}, {39, 28}, {41, 28}, {45, 43, 39}, {41, 40, 38}, {43, 39, 38}, {40, 38}, {42, 38}, {44, 41}, {39, 38}, {48, 43}, {40, 38}, {40, 38}, {38}, {39}, {38}, {}, {}, {}, {}, {}, {}, {}, {}, {}, {}, {}, {}, {}];
n_opt = 150;
dur = [14, 17, 24, 12, 26, 30, 5, 10, 29, 4, 23, 26, 7, 18, 19, 6, 10, 11, 2, 8, 10, 8, 25, 27, 8, 22, 26, 3, 21, 26, 22, 23, 28, 2, 10, 22, 15, 26, 28, 12, 13, 28, 15, 23, 24, 4, 6, 7, 9, 11, 12, 24, 29, 30, 10, 15, 25, 1, 18, 23, 1, 2, 11, 14, 25, 30, 5, 17, 21, 20, 21, 26, 15, 21, 28, 5, 6, 17, 6, 9, 10, 6, 21, 24, 16, 22, 27, 3, 17, 23, 15, 17, 24, 24, 29, 30, 18, 19, 26, 9, 10, 20, 2, 4, 11, 15, 17, 20, 8, 13, 21, 8, 20, 22, 7, 17, 18, 4, 10, 26, 2, 7, 28, 3, 5, 26, 1, 2, 3, 4, 15, 30, 13, 22, 30, 11, 27, 28, 3, 5, 10, 2, 3, 17, 7, 8, 22, 11, 15, 19];
rreq = [|4, 3, 3, 4, 4, 4, 5, 4, 3, 3, 3, 1, 3, 2, 2, 3, 2, 2, 1, 1, 1, 4, 2, 1, 5, 4, 3, 3, 2, 2, 4, 4, 2, 5, 4, 3, 1, 1, 1, 4, 3, 3, 2, 2, 2, 1, 1, 1, 2, 2, 2, 2, 1, 1, 5, 5, 5, 3, 2, 2, 4, 3, 1, 3, 3, 1, 2, 1, 1, 3, 3, 3, 2, 2, 2, 1, 1, 1, 5, 2, 1, 5, 4, 3, 2, 2, 2, 2, 2, 2, 4, 4, 4, 4, 4, 4, 3, 2, 1, 4, 4, 4, 5, 4, 3, 5, 5, 5, 2, 2, 2, 5, 5, 5, 2, 2, 1, 5, 2, 2, 4, 3, 2, 2, 2, 2, 4, 3, 2, 4, 3, 3, 1, 1, 1, 2, 1, 1, 4, 4, 3, 5, 4, 4, 5, 2, 1, 2, 2, 2
 |3, 2, 2, 3, 2, 2, 3, 3, 3, 4, 4, 4, 4, 4, 4, 5, 4, 4, 1, 1, 1, 1, 1, 1, 4, 3, 1, 4, 3, 2, 2, 1, 1, 5, 4, 3, 5, 5, 5, 2, 2, 2, 2, 2, 1, 5, 4, 3, 4, 4, 4, 2, 2, 1, 5, 3, 3, 2, 2, 2, 3, 3, 3, 4, 2, 1, 3, 3, 3, 4, 2, 1, 5, 4, 4, 3, 3, 2, 2, 1, 1, 5, 4, 2, 3, 3, 2, 4, 4, 3, 5, 5, 5, 4, 4, 3, 4, 3, 3, 4, 2, 1, 4, 4, 4, 4, 3, 3, 1, 1, 1, 5, 3, 3, 4, 4, 4, 3, 3, 3, 5, 3, 2, 3, 2, 2, 5, 4, 4, 3, 1, 1, 3, 1, 1, 3, 2, 2, 4, 3, 1, 5, 4, 3, 3, 2, 2, 3, 3, 3
 |5, 4, 4, 2, 2, 2, 3, 3, 3, 4, 2, 2, 5, 2, 1, 3, 3, 1, 3, 2, 2, 2, 1, 1, 4, 4, 4, 4, 2, 2, 1, 1, 1, 3, 2, 2, 3, 3, 3, 5, 4, 2, 2, 1, 1, 2, 2, 2, 4, 3, 2, 4, 2, 2, 4, 4, 3, 2, 2, 2, 5, 3, 1, 4, 3, 1, 2, 2, 2, 4, 3, 1, 5, 5, 5, 5, 5, 5, 4, 3, 3, 4, 3, 3, 5, 2, 1, 3, 3, 2, 4, 4, 4, 1, 1, 1, 5, 5, 5, 1, 1, 1, 4, 4, 3, 4, 2, 2, 4, 4, 3, 4, 3, 2, 4, 3, 3, 4, 2, 1, 5, 4, 3, 4, 3, 2, 4, 3, 2, 2, 2, 2, 3, 3, 2, 4, 4, 4, 5, 5, 5, 4, 2, 2, 3, 3, 3, 4, 4, 4
 |5, 4, 3, 4, 3, 3, 2, 2, 2, 4, 4, 3, 3, 3, 3, 3, 2, 2, 1, 1, 1, 4, 3, 2, 3, 2, 2, 3, 2, 1, 3, 2, 2, 4, 4, 3, 5, 3, 3, 4, 3, 3, 4, 4, 4, 5, 4, 4, 4, 2, 2, 1, 1, 1, 1, 1, 1, 5, 3, 2, 3, 3, 3, 4, 2, 2, 3, 2, 1, 4, 3, 3, 4, 2, 1, 3, 3, 2, 3, 3, 1, 4, 4, 3, 4, 3, 2, 1, 1, 1, 3, 3, 2, 3, 3, 3, 4, 2, 2, 1, 1, 1, 5, 3, 3, 5, 4, 4, 3, 3, 2, 5, 5, 5, 5, 5, 5, 5, 4, 3, 4, 4, 4, 3, 2, 2, 3, 3, 2, 5, 3, 2, 1, 1, 1, 4, 4, 4, 3, 3, 3, 3, 3, 3, 1, 1, 1, 3, 3, 3
 |20, 16, 15, 26, 25, 25, 12, 8, 5, 12, 12, 9, 26, 22, 18, 8, 6, 5, 27, 20, 12, 13, 5, 5, 24, 19, 17, 8, 7, 4, 21, 17, 13, 13, 12, 11, 14, 12, 2, 23, 14, 9, 23, 12, 6, 16, 16, 13, 28, 24, 22, 18, 15, 11, 27, 21, 18, 26, 22, 21, 23, 18, 18, 4, 3, 3, 24, 22, 22, 25, 19, 7, 10, 10, 8, 4, 4, 1, 6, 4, 3, 17, 13, 2, 14, 10, 10, 18, 15, 12, 24, 9, 9, 5, 5, 4, 16, 9, 7, 22, 20, 18, 24, 23, 21, 26, 23, 22, 4, 3, 3, 23, 17, 6, 24, 22, 13, 10, 6, 6, 11, 9, 6, 7, 6, 5, 18, 14, 13, 19, 18, 17, 12, 12, 4, 25, 22, 21, 8, 7, 7, 21, 20, 20, 21, 13, 11, 10, 10, 10
 |23, 22, 21, 17, 11, 5, 22, 22, 18, 9, 4, 2, 28, 28, 28, 22, 22, 13, 18, 14, 6, 25, 24, 17, 11, 10, 10, 30, 29, 28, 28, 27, 26, 28, 22, 18, 17, 17, 16, 27, 20, 10, 29, 26, 25, 22, 9, 7, 26, 26, 24, 22, 17, 15, 21, 21, 20, 26, 25, 24, 5, 3, 2, 16, 12, 12, 21, 15, 6, 15, 13, 12, 18, 12, 10, 15, 14, 13, 16, 11, 9, 22, 13, 3, 24, 23, 13, 22, 21, 20, 14, 14, 14, 8, 5, 4, 3, 2, 2, 15, 11, 10, 25, 18, 13, 12, 9, 6, 17, 17, 17, 25, 24, 17, 26, 25, 21, 30, 23, 20, 24, 15, 11, 13, 13, 11, 18, 16, 9, 20, 19, 19, 28, 23, 15, 22, 21, 16, 22, 18, 15, 30, 29, 29, 23, 12, 6, 24, 15, 13|];